\ Model keypath
\ LP format - for model browsing. Use MPS format to capture full model detail.
Minimize
  99 t_1_2 + 155 t_2_1 + 66 t_3_4 + 75 t_3_5 + 62 t_4_3 + 60 t_4_5
   + 90 t_6_7 + 110 t_6_8 + 80 t_7_8 + 124 t_9_10 + 66 t_10_9 + 78 t_11_12
   + 130 t_11_13 + 165 t_12_11 + 150 t_12_13 + 59 t_14_15 + 72.5 t_15_14
Subject To
 cap_102: t_1_2 - 0.1 t_2_1 - 0.3 t_6_7 + t_7_8 >= 62
 cap_301: - 0.2 t_9_10 + t_10_9 + t_14_15 - 0.1 t_15_14 >= 56
 cap_201: - 0.1 t_3_5 - 0.2 t_4_5 - 0.3 t_6_7 + t_7_8 + t_11_12 + t_11_13
   - 0.1 t_12_11 >= 36
 cap_104: - 0.3 t_1_2 + t_2_1 - 0.1 t_6_8 - 0.2 t_7_8 >= 82
 cap_202: t_3_4 + t_3_5 - 0.1 t_4_3 - 0.2 t_9_10 + t_10_9 - 0.2 t_11_13
   - 0.3 t_12_13 >= 117
 cap_302: - 0.1 t_3_5 - 0.2 t_4_5 + t_9_10 - 0.1 t_10_9 >= 82
 cap_303: - 0.2 t_14_15 + t_15_14 >= -64
 cap_204: - 0.2 t_3_4 + t_4_3 + t_4_5 >= -8
 cap_203: - 0.1 t_6_8 - 0.2 t_7_8 - 0.4 t_11_12 + t_12_11 + t_12_13 >= 142
 cap_101: t_6_7 + t_6_8 - 0.2 t_11_13 - 0.3 t_12_13 >= 42
 demand_1: t_1_2 <= 90
 demand_2: t_2_1 <= 120
 demand_3: t_3_4 + t_3_5 <= 70
 demand_4: t_4_3 + t_4_5 <= 100
 demand_5: <= 50
 demand_6: t_6_7 + t_6_8 <= 120
 demand_7: t_7_8 <= 80
 demand_8: <= 70
 demand_9: t_9_10 <= 140
 demand_10: t_10_9 <= 125
 demand_11: t_11_12 + t_11_13 <= 50
 demand_12: t_12_11 + t_12_13 <= 180
 demand_13: <= 30
 demand_14: t_14_15 <= 75
 demand_15: t_15_14 <= 80
Bounds
Generals
 t_1_2 t_2_1 t_3_4 t_3_5 t_4_3 t_4_5 t_6_7 t_6_8 t_7_8 t_9_10 t_10_9
 t_11_12 t_11_13 t_12_11 t_12_13 t_14_15 t_15_14
End
